50 10813

151
84
490
255
416
186
137
184
160
448
98
427
60
68
408
437
60
80
211
388
19
251
455
444
486
346
70
20
421
414
385
254
225
333
239
42
279
367
363
336
443
277
168
116
290
282
332
452
250
410
